Minimize
  obj: x0 + x1 + x2 + x3 + x4 + x5

Subject To
  c0: x3 + x4 = 16
  c1: x2 + x3 + x4 = 16
  c2: x0 + x1 + x4 + x5 = 43
  c3: x0 + x1 + x2 + x3 + x4 = 38
  c4: x0 + x2 + x3 = 20
  c5: x0 + x2 + x4 + x5 = 33

Bounds
  x0 >= 0
  x1 >= 0
  x2 >= 0
  x3 >= 0
  x4 >= 0
  x5 >= 0

Generals
  x0 x1 x2 x3 x4 x5

End
